% Número de regiões
n = 5;
% Número de relações
m = 7;

regiao1 = [1, 1, 1, 2, 2, 3, 4];
regiao2 = [2, 3, 5, 3, 4, 4, 5];

% Cores que a região não deve assumir
%              1   2      3     4     5
restricoes = [{}, {Azul}, {}, {Azul}, {}];

